### INPUT STARTS HERE ###
! B3LYP def2-SVP Opt
*xyzfile 0 1 gly_no_charges.xyz
###  INPUT ENDS HERE  ###

